2306 2315
386 2906
1135 2177
3312 1875
1779 165
4396 1177
182 2991
922 1332
3893 3885
2666 2494
2547 3491
4049 1058
2888 3728
2576 4063
4484 1641
2969 2061
145 2336
621 1193
2449 2685
3516 2930
1300 3955
2826 745
270 1402
1978 3774
206 2231
2622 2966
2857 3557
2426 2604
3676 937
3810 1441
4331 476
393 1394
3898 1301
2292 985
4502 1007
3652 2871
825 1160
2609 3474
1170 2804
1496 3205
3071 1328
2307 481
3167 286
1392 1011
2715 3251
1712 3065
2922 52
4404 4437
2508 2838
2710 4428
